NPROCS=0
This instance is clustered!
Gurobi Optimizer version 9.0.0 build v9.0.0rc2 (linux64)
Optimize a model with 16 rows, 65 columns and 128 nonzeros
Model fingerprint: 0x9bb1b8c8
Variable types: 1 continuous, 64 integer (64 binary)
Coefficient statistics:
  Matrix range     [1e+00, 1e+00]
  Objective range  [1e+00, 2e+01]
  Bounds range     [1e+00, 1e+00]
  RHS range        [1e+00, 1e+00]
Presolve removed 2 rows and 21 columns
Presolve time: 0.00s
Presolved: 14 rows, 44 columns, 86 nonzeros
Variable types: 1 continuous, 43 integer (43 binary)

Root relaxation: objective 3.291936e+01, 11 iterations, 0.00 seconds

    Nodes    |    Current Node    |     Objective Bounds      |     Work
 Expl Unexpl |  Obj  Depth IntInf | Incumbent    BestBd   Gap | It/Node Time

     0     0   42.24710    0    9          -   42.24710      -     -    0s
H    0     0                      57.4235220   42.24710  26.4%     -    0s
     0     0   44.29614    0   15   57.42352   44.29614  22.9%     -    0s
     0     0   44.29614    0   10   57.42352   44.29614  22.9%     -    0s
     0     2   44.29614    0   16   57.42352   44.29614  22.9%     -    0s

Cutting planes:
  Gomory: 1
  Lazy constraints: 66

Explored 190 nodes (452 simplex iterations) in 0.05 seconds
Thread count was 12 (of 12 available processors)

Solution count 1: 57.4235 

Optimal solution found (tolerance 1.00e-04)
Best objective 5.742352196698e+01, best bound 5.742352196698e+01, gap 0.0000%

User-callback calls 526, time in user-callback 0.00 sec
/projects/academic/josewalt/caigao/RRARP_BD/BendersDecomp/ret/model_outs/n_6_h_3_algo_2.out
 =====>>>>> Solution is written to file in <../ret/model_outs> !!!
===>> All Done!
